c CNF file generated from BLIF2CNF script.
c Original BLIF file was blif/mux.blif
p cnf 73 240
1 -4 0
2 -4 0
4 -1 -2  0
-4 3 0
-3 4  0
-5 -12 0
-6 -12 0
9 -12 0
12 5 6 -9  0
-12 11 0
-7 -13 0
-8 -13 0
-9 -13 0
13 7 8 9  0
-13 11 0
-5 -14 0
-7 -14 0
10 -14 0
14 5 7 -10  0
-14 11 0
-5 -15 0
9 -15 0
10 -15 0
15 5 -9 -10  0
-15 11 0
-7 -16 0
-9 -16 0
10 -16 0
16 7 9 -10  0
-16 11 0
-6 -17 0
-8 -17 0
-10 -17 0
17 6 8 10  0
-17 11 0
-6 -18 0
9 -18 0
-10 -18 0
18 6 -9 10  0
-18 11 0
-8 -19 0
-9 -19 0
-10 -19 0
19 8 9 10  0
-19 11 0
-5 -20 0
-6 -20 0
-7 -20 0
-8 -20 0
20 5 6 7 8  0
-20 11 0
-11 12 13 14 15 16 17 18 19 20  0
-21 -26 0
-22 -26 0
9 -26 0
26 21 22 -9  0
-26 25 0
-23 -27 0
-24 -27 0
-9 -27 0
27 23 24 9  0
-27 25 0
-21 -28 0
-23 -28 0
10 -28 0
28 21 23 -10  0
-28 25 0
-21 -29 0
9 -29 0
10 -29 0
29 21 -9 -10  0
-29 25 0
-23 -30 0
-9 -30 0
10 -30 0
30 23 9 -10  0
-30 25 0
-22 -31 0
-24 -31 0
-10 -31 0
31 22 24 10  0
-31 25 0
-22 -32 0
9 -32 0
-10 -32 0
32 22 -9 10  0
-32 25 0
-24 -33 0
-9 -33 0
-10 -33 0
33 24 9 10  0
-33 25 0
-21 -34 0
-22 -34 0
-23 -34 0
-24 -34 0
34 21 22 23 24  0
-34 25 0
-25 26 27 28 29 30 31 32 33 34  0
-35 -40 0
-36 -40 0
9 -40 0
40 35 36 -9  0
-40 39 0
-37 -41 0
-38 -41 0
-9 -41 0
41 37 38 9  0
-41 39 0
-35 -42 0
-37 -42 0
10 -42 0
42 35 37 -10  0
-42 39 0
-35 -43 0
9 -43 0
10 -43 0
43 35 -9 -10  0
-43 39 0
-37 -44 0
-9 -44 0
10 -44 0
44 37 9 -10  0
-44 39 0
-36 -45 0
-38 -45 0
-10 -45 0
45 36 38 10  0
-45 39 0
-36 -46 0
9 -46 0
-10 -46 0
46 36 -9 10  0
-46 39 0
-38 -47 0
-9 -47 0
-10 -47 0
47 38 9 10  0
-47 39 0
-35 -48 0
-36 -48 0
-37 -48 0
-38 -48 0
48 35 36 37 38  0
-48 39 0
-39 40 41 42 43 44 45 46 47 48  0
-49 -54 0
-50 -54 0
9 -54 0
54 49 50 -9  0
-54 53 0
-51 -55 0
-52 -55 0
-9 -55 0
55 51 52 9  0
-55 53 0
-49 -56 0
-51 -56 0
10 -56 0
56 49 51 -10  0
-56 53 0
-49 -57 0
9 -57 0
10 -57 0
57 49 -9 -10  0
-57 53 0
-51 -58 0
-9 -58 0
10 -58 0
58 51 9 -10  0
-58 53 0
-50 -59 0
-52 -59 0
-10 -59 0
59 50 52 10  0
-59 53 0
-50 -60 0
9 -60 0
-10 -60 0
60 50 -9 10  0
-60 53 0
-52 -61 0
-9 -61 0
-10 -61 0
61 52 9 10  0
-61 53 0
-49 -62 0
-50 -62 0
-51 -62 0
-52 -62 0
62 49 50 51 52  0
-62 53 0
-53 54 55 56 57 58 59 60 61 62  0
-63 -65 0
-64 -65 0
-11 -65 0
65 63 64 11  0
-65 2 0
-63 -66 0
64 -66 0
-25 -66 0
66 63 -64 25  0
-66 2 0
-63 -67 0
-11 -67 0
-25 -67 0
67 63 11 25  0
-67 2 0
63 -68 0
-64 -68 0
-39 -68 0
68 -63 64 39  0
-68 2 0
-64 -69 0
-11 -69 0
-39 -69 0
69 64 11 39  0
-69 2 0
63 -70 0
64 -70 0
-53 -70 0
70 -63 -64 53  0
-70 2 0
64 -71 0
-25 -71 0
-53 -71 0
71 -64 25 53  0
-71 2 0
63 -72 0
-39 -72 0
-53 -72 0
72 -63 39 53  0
-72 2 0
-11 -73 0
-25 -73 0
-39 -73 0
-53 -73 0
73 11 25 39 53  0
-73 2 0
-2 65 66 67 68 69 70 71 72 73  0
